c Reduced graph for GEOM70a generated by Cyril Grelier
p edge 53 334
e 1 6
e 1 7
e 1 16
e 1 17
e 1 18
e 1 23
e 1 26
e 1 28
e 1 31
e 1 35
e 1 36
e 1 37
e 1 40
e 1 46
e 1 48
e 1 51
e 2 3
e 2 8
e 2 12
e 2 15
e 2 19
e 2 22
e 2 30
e 2 34
e 2 38
e 2 39
e 2 43
e 2 44
e 2 45
e 2 47
e 2 50
e 2 53
e 3 8
e 3 10
e 3 13
e 3 15
e 3 19
e 3 20
e 3 29
e 3 38
e 3 39
e 3 42
e 3 43
e 3 45
e 3 47
e 4 14
e 4 19
e 4 27
e 4 45
e 4 49
e 5 20
e 5 31
e 5 37
e 5 42
e 6 7
e 6 16
e 6 17
e 6 18
e 6 23
e 6 26
e 6 28
e 6 31
e 6 35
e 6 36
e 6 37
e 6 40
e 6 46
e 6 48
e 6 51
e 7 16
e 7 17
e 7 18
e 7 23
e 7 26
e 7 28
e 7 31
e 7 35
e 7 36
e 7 37
e 7 40
e 7 46
e 7 48
e 7 51
e 8 12
e 8 15
e 8 19
e 8 22
e 8 30
e 8 34
e 8 38
e 8 39
e 8 43
e 8 44
e 8 45
e 8 47
e 8 50
e 8 53
e 9 11
e 9 16
e 9 21
e 9 24
e 9 25
e 9 27
e 9 29
e 9 32
e 9 33
e 9 41
e 9 49
e 9 52
e 10 13
e 10 15
e 10 19
e 10 20
e 10 29
e 10 37
e 10 39
e 10 42
e 10 45
e 10 47
e 11 14
e 11 21
e 11 25
e 11 27
e 11 32
e 11 33
e 11 41
e 11 49
e 11 52
e 12 22
e 12 30
e 12 38
e 12 43
e 12 44
e 12 47
e 12 50
e 12 53
e 13 15
e 13 20
e 13 28
e 13 29
e 13 37
e 13 39
e 13 42
e 14 25
e 14 27
e 14 41
e 14 49
e 15 19
e 15 20
e 15 30
e 15 34
e 15 38
e 15 39
e 15 42
e 15 43
e 15 44
e 15 45
e 15 47
e 16 17
e 16 21
e 16 24
e 16 26
e 16 32
e 16 33
e 16 35
e 16 36
e 16 46
e 16 51
e 16 52
e 17 18
e 17 23
e 17 26
e 17 28
e 17 31
e 17 35
e 17 36
e 17 40
e 17 46
e 17 48
e 17 51
e 18 23
e 18 26
e 18 28
e 18 31
e 18 35
e 18 36
e 18 37
e 18 40
e 18 46
e 18 48
e 19 30
e 19 38
e 19 39
e 19 43
e 19 44
e 19 45
e 19 47
e 20 28
e 20 29
e 20 37
e 20 39
e 20 42
e 21 24
e 21 25
e 21 32
e 21 33
e 21 41
e 21 49
e 21 52
e 22 30
e 22 38
e 22 43
e 22 44
e 22 50
e 22 53
e 23 26
e 23 28
e 23 31
e 23 35
e 23 36
e 23 37
e 23 40
e 23 46
e 23 48
e 24 26
e 24 29
e 24 32
e 24 33
e 24 35
e 24 36
e 24 41
e 24 51
e 24 52
e 25 27
e 25 41
e 25 49
e 26 35
e 26 36
e 26 46
e 26 48
e 26 51
e 27 41
e 27 45
e 27 49
e 28 29
e 28 31
e 28 35
e 28 36
e 28 37
e 28 40
e 28 42
e 28 48
e 29 32
e 29 33
e 29 35
e 29 36
e 29 37
e 29 42
e 29 45
e 30 34
e 30 38
e 30 43
e 30 44
e 30 47
e 30 50
e 30 53
e 31 35
e 31 37
e 31 40
e 31 48
e 32 33
e 32 35
e 32 36
e 32 41
e 32 49
e 32 52
e 33 35
e 33 36
e 33 41
e 33 49
e 33 52
e 34 38
e 34 39
e 34 43
e 34 44
e 34 47
e 34 50
e 34 53
e 35 36
e 35 37
e 35 40
e 35 46
e 35 48
e 35 51
e 36 37
e 36 40
e 36 46
e 36 48
e 36 51
e 36 52
e 37 40
e 37 42
e 38 39
e 38 43
e 38 44
e 38 45
e 38 47
e 38 50
e 38 53
e 39 42
e 39 43
e 39 44
e 39 45
e 39 47
e 40 48
e 41 49
e 41 52
e 43 44
e 43 45
e 43 47
e 43 50
e 43 53
e 44 47
e 44 50
e 44 53
e 45 47
e 46 48
e 46 51
e 47 50
e 47 53
e 48 51
e 49 52
e 50 53
e 51 52
